100
100
983 8
939 15
708 3
779 5
831 2
487 14
519 6
826 14
586 15
879 7
672 15
997 24
20 14
737 9
555 9
999 17
444 12
450 23
537 20
447 7
497 8
248 8
350 19
84 18
198 18
247 10
162 3
486 2
352 18
653 9
814 23
852 9
532 5
699 6
444 14
233 16
881 3
818 1
22 24
832 15
567 2
499 18
527 11
733 5
853 4
479 17
74 1
257 1
729 23
176 20
748 9
153 16
707 10
672 18
880 2
759 4
61 6
184 17
777 20
866 13
781 6
673 16
134 10
29 1
412 11
744 24
918 13
873 14
997 2
993 1
932 17
376 17
28 24
971 23
560 25
111 20
995 23
168 18
755 23
927 14
173 12
675 9
356 5
603 21
930 10
281 14
575 9
647 13
488 21
656 14
531 16
323 13
599 10
786 15
552 22
226 18
740 14
268 12
994 5
693 6
